44 97 85 51 29 55 35 40 73 18 86 28 25 50 94 36 82 24 22 17 56 2 9 91 92 89 77 16 83 45 26 42 93 58 79 84 59 8 30 99 38 11 47 37 61 49 10 41 74 32 53 43 87 39 90 57 80 7 12 15 95 72 60 1 66 88 34 13 68 75 63 5 6 67 54 19 78 14 20 71 98 76 23 70 69 0 31 48 52 65 3 33 46 64 62 81 96 21 4 27 

